p cnf 12 50 
8 -2 -12 0
-7 10 2 0
2 1 -6 0
-7 -4 10 0
12 -7 -11 0
-10 -12 2 0
-1 11 7 0
7 12 3 0
11 3 -7 0
1 -8 3 0
4 3 -6 0
2 -3 -12 0
4 10 -7 0
5 11 -10 0
-10 1 2 0
-9 -1 -4 0
-9 -6 -4 0
-11 7 1 0
3 -5 -7 0
-7 -1 -6 0
10 1 -4 0
-4 5 -9 0
2 -6 -7 0
8 4 2 0
2 7 -12 0
6 -1 5 0
5 -10 2 0
-3 1 -5 0
6 3 -7 0
7 6 5 0
-10 5 -6 0
-2 11 12 0
6 -12 -7 0
-1 -7 -9 0
-2 -3 11 0
-11 -4 -9 0
3 -9 -7 0
-6 2 -11 0
4 -9 -10 0
-4 -2 12 0
4 5 -3 0
-2 11 4 0
9 -10 11 0
-7 6 8 0
-9 3 10 0
3 4 9 0
7 2 -6 0
7 10 4 0
-2 -10 -12 0
-10 6 4 0
